80 254668
17 2 6 80 15 43 26 64 29 46 49 44 52 67 42 65 63 60 38 19 66 55 39 48 72 30 76 58 32 12 20 70 75 18 62 59 8 79 22 69 68 28 77 73 31 50 4 71 16 78 56 1 24 10 5 51 3 45 61 34 74 40 54 27 7 9 14 21 36 57 33 11 25 13 37 41 53 23 47 35 
